New structure                         
1.0
19.0127048492          0.0          0.0
0.0          19.0127048492          0.0
0.0          0.0          19.0127048492
    N O
    432 428
Cartesian
0.32436055          0.32436055          7.92944241
0.32436055          0.32436055          11.73198315
0.32436055          4.12690138          7.92944241
0.32436055          4.12690138          11.73198315
0.32436055          7.92944241          0.32436055
0.32436055          7.92944241          4.12690138
0.32436055          7.92944241          7.92944241
0.32436055          7.92944241          11.73198315
0.32436055          7.92944241          15.53452391
0.32436055          11.73198315          0.32436055
0.32436055          11.73198315          4.12690138
0.32436055          11.73198315          7.92944241
0.32436055          11.73198315          11.73198315
0.32436055          11.73198315          15.53452391
0.32436055          15.53452391          7.92944241
0.32436055          15.53452391          11.73198315
4.12690138          0.32436055          7.92944241
4.12690138          0.32436055          11.73198315
4.12690138          4.12690138          0.32436055
4.12690138          4.12690138          4.12690138
4.12690138          4.12690138          7.92944241
4.12690138          4.12690138          11.73198315
4.12690138          4.12690138          15.53452391
4.12690138          7.92944241          0.32436055
4.12690138          7.92944241          4.12690138
4.12690138          7.92944241          7.92944241
4.12690138          7.92944241          11.73198315
4.12690138          7.92944241          15.53452391
4.12690138          11.73198315          0.32436055
4.12690138          11.73198315          4.12690138
4.12690138          11.73198315          7.92944241
4.12690138          11.73198315          11.73198315
4.12690138          11.73198315          15.53452391
4.12690138          15.53452391          0.32436055
4.12690138          15.53452391          4.12690138
4.12690138          15.53452391          7.92944241
4.12690138          15.53452391          11.73198315
4.12690138          15.53452391          15.53452391
7.92944241          0.32436055          0.32436055
7.92944241          0.32436055          4.12690138
7.92944241          0.32436055          7.92944241
7.92944241          0.32436055          11.73198315
7.92944241          0.32436055          15.53452391
7.92944241          4.12690138          0.32436055
7.92944241          4.12690138          4.12690138
7.92944241          4.12690138          7.92944241
7.92944241          4.12690138          11.73198315
7.92944241          4.12690138          15.53452391
7.92944241          7.92944241          0.32436055
7.92944241          7.92944241          4.12690138
7.92944241          7.92944241          7.92944241
7.92944241          7.92944241          11.73198315
7.92944241          7.92944241          15.53452391
7.92944241          11.73198315          0.32436055
7.92944241          11.73198315          4.12690138
7.92944241          11.73198315          7.92944241
7.92944241          11.73198315          11.73198315
7.92944241          11.73198315          15.53452391
7.92944241          15.53452391          0.32436055
7.92944241          15.53452391          4.12690138
7.92944241          15.53452391          7.92944241
7.92944241          15.53452391          11.73198315
7.92944241          15.53452391          15.53452391
11.73198315          0.32436055          0.32436055
11.73198315          0.32436055          4.12690138
11.73198315          0.32436055          7.92944241
11.73198315          0.32436055          11.73198315
11.73198315          0.32436055          15.53452391
11.73198315          4.12690138          0.32436055
11.73198315          4.12690138          4.12690138
11.73198315          4.12690138          7.92944241
11.73198315          4.12690138          11.73198315
11.73198315          4.12690138          15.53452391
11.73198315          7.92944241          0.32436055
11.73198315          7.92944241          4.12690138
11.73198315          7.92944241          7.92944241
11.73198315          7.92944241          11.73198315
11.73198315          7.92944241          15.53452391
11.73198315          11.73198315          0.32436055
11.73198315          11.73198315          4.12690138
11.73198315          11.73198315          7.92944241
11.73198315          11.73198315          11.73198315
11.73198315          11.73198315          15.53452391
11.73198315          15.53452391          0.32436055
11.73198315          15.53452391          4.12690138
11.73198315          15.53452391          7.92944241
11.73198315          15.53452391          11.73198315
11.73198315          15.53452391          15.53452391
15.53452391          0.32436055          7.92944241
15.53452391          0.32436055          11.73198315
15.53452391          4.12690138          0.32436055
15.53452391          4.12690138          4.12690138
15.53452391          4.12690138          7.92944241
15.53452391          4.12690138          11.73198315
15.53452391          4.12690138          15.53452391
15.53452391          7.92944241          0.32436055
15.53452391          7.92944241          4.12690138
15.53452391          7.92944241          7.92944241
15.53452391          7.92944241          11.73198315
15.53452391          7.92944241          15.53452391
15.53452391          11.73198315          0.32436055
15.53452391          11.73198315          4.12690138
15.53452391          11.73198315          7.92944241
15.53452391          11.73198315          11.73198315
15.53452391          11.73198315          15.53452391
15.53452391          15.53452391          7.92944241
15.53452391          15.53452391          11.73198315
1.57690986          3.47818038          6.02817204
1.57690986          3.47818038          9.83071335
1.57690986          3.47818038          13.63325409
1.57690986          7.28072113          2.22563101
1.57690986          7.28072113          6.02817204
1.57690986          7.28072113          9.83071335
1.57690986          7.28072113          13.63325409
1.57690986          7.28072113          17.43579484
1.57690986          11.08326244          2.22563101
1.57690986          11.08326244          6.02817204
1.57690986          11.08326244          9.83071335
1.57690986          11.08326244          13.63325409
1.57690986          11.08326244          17.43579484
1.57690986          14.88580318          6.02817204
1.57690986          14.88580318          9.83071335
1.57690986          14.88580318          13.63325409
1.57690986          18.68834392          6.02817204
1.57690986          18.68834392          9.83071335
1.57690986          18.68834392          13.63325409
5.37945076          3.47818038          2.22563101
5.37945076          3.47818038          6.02817204
5.37945076          3.47818038          9.83071335
5.37945076          3.47818038          13.63325409
5.37945076          3.47818038          17.43579484
5.37945076          7.28072113          2.22563101
5.37945076          7.28072113          6.02817204
5.37945076          7.28072113          9.83071335
5.37945076          7.28072113          13.63325409
5.37945076          7.28072113          17.43579484
5.37945076          11.08326244          2.22563101
5.37945076          11.08326244          6.02817204
5.37945076          11.08326244          9.83071335
5.37945076          11.08326244          13.63325409
5.37945076          11.08326244          17.43579484
5.37945076          14.88580318          2.22563101
5.37945076          14.88580318          6.02817204
5.37945076          14.88580318          9.83071335
5.37945076          14.88580318          13.63325409
5.37945076          14.88580318          17.43579484
5.37945076          18.68834392          6.02817204
5.37945076          18.68834392          9.83071335
5.37945076          18.68834392          13.63325409
9.18199207          3.47818038          2.22563101
9.18199207          3.47818038          6.02817204
9.18199207          3.47818038          9.83071335
9.18199207          3.47818038          13.63325409
9.18199207          3.47818038          17.43579484
9.18199207          7.28072113          2.22563101
9.18199207          7.28072113          6.02817204
9.18199207          7.28072113          9.83071335
9.18199207          7.28072113          13.63325409
9.18199207          7.28072113          17.43579484
9.18199207          11.08326244          2.22563101
9.18199207          11.08326244          6.02817204
9.18199207          11.08326244          9.83071335
9.18199207          11.08326244          13.63325409
9.18199207          11.08326244          17.43579484
9.18199207          14.88580318          2.22563101
9.18199207          14.88580318          6.02817204
9.18199207          14.88580318          9.83071335
9.18199207          14.88580318          13.63325409
9.18199207          14.88580318          17.43579484
9.18199207          18.68834392          2.22563101
9.18199207          18.68834392          6.02817204
9.18199207          18.68834392          9.83071335
9.18199207          18.68834392          13.63325409
9.18199207          18.68834392          17.43579484
12.98453224          3.47818038          2.22563101
12.98453224          3.47818038          6.02817204
12.98453224          3.47818038          9.83071335
12.98453224          3.47818038          13.63325409
12.98453224          3.47818038          17.43579484
12.98453224          7.28072113          2.22563101
12.98453224          7.28072113          6.02817204
12.98453224          7.28072113          9.83071335
12.98453224          7.28072113          13.63325409
12.98453224          7.28072113          17.43579484
12.98453224          11.08326244          2.22563101
12.98453224          11.08326244          6.02817204
12.98453224          11.08326244          9.83071335
12.98453224          11.08326244          13.63325409
12.98453224          11.08326244          17.43579484
12.98453224          14.88580318          2.22563101
12.98453224          14.88580318          6.02817204
12.98453224          14.88580318          9.83071335
12.98453224          14.88580318          13.63325409
12.98453224          14.88580318          17.43579484
12.98453224          18.68834392          6.02817204
12.98453224          18.68834392          9.83071335
12.98453224          18.68834392          13.63325409
16.78707412          3.47818038          6.02817204
16.78707412          3.47818038          9.83071335
16.78707412          3.47818038          13.63325409
16.78707412          7.28072113          2.22563101
16.78707412          7.28072113          6.02817204
16.78707412          7.28072113          9.83071335
16.78707412          7.28072113          13.63325409
16.78707412          7.28072113          17.43579484
16.78707412          11.08326244          2.22563101
16.78707412          11.08326244          6.02817204
16.78707412          11.08326244          9.83071335
16.78707412          11.08326244          13.63325409
16.78707412          11.08326244          17.43579484
16.78707412          14.88580318          6.02817204
16.78707412          14.88580318          9.83071335
16.78707412          14.88580318          13.63325409
16.78707412          18.68834392          6.02817204
16.78707412          18.68834392          9.83071335
16.78707412          18.68834392          13.63325409
3.47818038          2.22563101          5.37945076
3.47818038          2.22563101          9.18199207
3.47818038          2.22563101          12.98453224
3.47818038          6.02817204          1.57690986
3.47818038          6.02817204          5.37945076
3.47818038          6.02817204          9.18199207
3.47818038          6.02817204          12.98453224
3.47818038          6.02817204          16.78707412
3.47818038          9.83071335          1.57690986
3.47818038          9.83071335          5.37945076
3.47818038          9.83071335          9.18199207
3.47818038          9.83071335          12.98453224
3.47818038          9.83071335          16.78707412
3.47818038          13.63325409          1.57690986
3.47818038          13.63325409          5.37945076
3.47818038          13.63325409          9.18199207
3.47818038          13.63325409          12.98453224
3.47818038          13.63325409          16.78707412
3.47818038          17.43579484          5.37945076
3.47818038          17.43579484          9.18199207
3.47818038          17.43579484          12.98453224
7.28072113          2.22563101          1.57690986
7.28072113          2.22563101          5.37945076
7.28072113          2.22563101          9.18199207
7.28072113          2.22563101          12.98453224
7.28072113          2.22563101          16.78707412
7.28072113          6.02817204          1.57690986
7.28072113          6.02817204          5.37945076
7.28072113          6.02817204          9.18199207
7.28072113          6.02817204          12.98453224
7.28072113          6.02817204          16.78707412
7.28072113          9.83071335          1.57690986
7.28072113          9.83071335          5.37945076
7.28072113          9.83071335          9.18199207
7.28072113          9.83071335          12.98453224
7.28072113          9.83071335          16.78707412
7.28072113          13.63325409          1.57690986
7.28072113          13.63325409          5.37945076
7.28072113          13.63325409          9.18199207
7.28072113          13.63325409          12.98453224
7.28072113          13.63325409          16.78707412
7.28072113          17.43579484          1.57690986
7.28072113          17.43579484          5.37945076
7.28072113          17.43579484          9.18199207
7.28072113          17.43579484          12.98453224
7.28072113          17.43579484          16.78707412
11.08326244          2.22563101          1.57690986
11.08326244          2.22563101          5.37945076
11.08326244          2.22563101          9.18199207
11.08326244          2.22563101          12.98453224
11.08326244          2.22563101          16.78707412
11.08326244          6.02817204          1.57690986
11.08326244          6.02817204          5.37945076
11.08326244          6.02817204          9.18199207
11.08326244          6.02817204          12.98453224
11.08326244          6.02817204          16.78707412
11.08326244          9.83071335          1.57690986
11.08326244          9.83071335          5.37945076
11.08326244          9.83071335          9.18199207
11.08326244          9.83071335          12.98453224
11.08326244          9.83071335          16.78707412
11.08326244          13.63325409          1.57690986
11.08326244          13.63325409          5.37945076
11.08326244          13.63325409          9.18199207
11.08326244          13.63325409          12.98453224
11.08326244          13.63325409          16.78707412
11.08326244          17.43579484          1.57690986
11.08326244          17.43579484          5.37945076
11.08326244          17.43579484          9.18199207
11.08326244          17.43579484          12.98453224
11.08326244          17.43579484          16.78707412
14.88580318          2.22563101          5.37945076
14.88580318          2.22563101          9.18199207
14.88580318          2.22563101          12.98453224
14.88580318          6.02817204          1.57690986
14.88580318          6.02817204          5.37945076
14.88580318          6.02817204          9.18199207
14.88580318          6.02817204          12.98453224
14.88580318          6.02817204          16.78707412
14.88580318          9.83071335          1.57690986
14.88580318          9.83071335          5.37945076
14.88580318          9.83071335          9.18199207
14.88580318          9.83071335          12.98453224
14.88580318          9.83071335          16.78707412
14.88580318          13.63325409          1.57690986
14.88580318          13.63325409          5.37945076
14.88580318          13.63325409          9.18199207
14.88580318          13.63325409          12.98453224
14.88580318          13.63325409          16.78707412
14.88580318          17.43579484          5.37945076
14.88580318          17.43579484          9.18199207
14.88580318          17.43579484          12.98453224
18.68834392          2.22563101          5.37945076
18.68834392          2.22563101          9.18199207
18.68834392          2.22563101          12.98453224
18.68834392          6.02817204          5.37945076
18.68834392          6.02817204          9.18199207
18.68834392          6.02817204          12.98453224
18.68834392          9.83071335          1.57690986
18.68834392          9.83071335          5.37945076
18.68834392          9.83071335          9.18199207
18.68834392          9.83071335          12.98453224
18.68834392          9.83071335          16.78707412
18.68834392          13.63325409          5.37945076
18.68834392          13.63325409          9.18199207
18.68834392          13.63325409          12.98453224
18.68834392          17.43579484          5.37945076
18.68834392          17.43579484          9.18199207
18.68834392          17.43579484          12.98453224
2.22563101          1.57690986          7.28072113
2.22563101          1.57690986          11.08326244
2.22563101          5.37945076          3.47818038
2.22563101          5.37945076          7.28072113
2.22563101          5.37945076          11.08326244
2.22563101          5.37945076          14.88580318
2.22563101          5.37945076          18.68834392
2.22563101          9.18199207          3.47818038
2.22563101          9.18199207          7.28072113
2.22563101          9.18199207          11.08326244
2.22563101          9.18199207          14.88580318
2.22563101          9.18199207          18.68834392
2.22563101          12.98453224          3.47818038
2.22563101          12.98453224          7.28072113
2.22563101          12.98453224          11.08326244
2.22563101          12.98453224          14.88580318
2.22563101          12.98453224          18.68834392
2.22563101          16.78707412          7.28072113
2.22563101          16.78707412          11.08326244
6.02817204          1.57690986          3.47818038
6.02817204          1.57690986          7.28072113
6.02817204          1.57690986          11.08326244
6.02817204          1.57690986          14.88580318
6.02817204          1.57690986          18.68834392
6.02817204          5.37945076          3.47818038
6.02817204          5.37945076          7.28072113
6.02817204          5.37945076          11.08326244
6.02817204          5.37945076          14.88580318
6.02817204          5.37945076          18.68834392
6.02817204          9.18199207          3.47818038
6.02817204          9.18199207          7.28072113
6.02817204          9.18199207          11.08326244
6.02817204          9.18199207          14.88580318
6.02817204          9.18199207          18.68834392
6.02817204          12.98453224          3.47818038
6.02817204          12.98453224          7.28072113
6.02817204          12.98453224          11.08326244
6.02817204          12.98453224          14.88580318
6.02817204          12.98453224          18.68834392
6.02817204          16.78707412          3.47818038
6.02817204          16.78707412          7.28072113
6.02817204          16.78707412          11.08326244
6.02817204          16.78707412          14.88580318
6.02817204          16.78707412          18.68834392
9.83071335          1.57690986          3.47818038
9.83071335          1.57690986          7.28072113
9.83071335          1.57690986          11.08326244
9.83071335          1.57690986          14.88580318
9.83071335          1.57690986          18.68834392
9.83071335          5.37945076          3.47818038
9.83071335          5.37945076          7.28072113
9.83071335          5.37945076          11.08326244
9.83071335          5.37945076          14.88580318
9.83071335          5.37945076          18.68834392
9.83071335          9.18199207          3.47818038
9.83071335          9.18199207          7.28072113
9.83071335          9.18199207          11.08326244
9.83071335          9.18199207          14.88580318
9.83071335          9.18199207          18.68834392
9.83071335          12.98453224          3.47818038
9.83071335          12.98453224          7.28072113
9.83071335          12.98453224          11.08326244
9.83071335          12.98453224          14.88580318
9.83071335          12.98453224          18.68834392
9.83071335          16.78707412          3.47818038
9.83071335          16.78707412          7.28072113
9.83071335          16.78707412          11.08326244
9.83071335          16.78707412          14.88580318
9.83071335          16.78707412          18.68834392
13.63325409          1.57690986          7.28072113
13.63325409          1.57690986          11.08326244
13.63325409          5.37945076          3.47818038
13.63325409          5.37945076          7.28072113
13.63325409          5.37945076          11.08326244
13.63325409          5.37945076          14.88580318
13.63325409          5.37945076          18.68834392
13.63325409          9.18199207          3.47818038
13.63325409          9.18199207          7.28072113
13.63325409          9.18199207          11.08326244
13.63325409          9.18199207          14.88580318
13.63325409          9.18199207          18.68834392
13.63325409          12.98453224          3.47818038
13.63325409          12.98453224          7.28072113
13.63325409          12.98453224          11.08326244
13.63325409          12.98453224          14.88580318
13.63325409          12.98453224          18.68834392
13.63325409          16.78707412          3.47818038
13.63325409          16.78707412          7.28072113
13.63325409          16.78707412          11.08326244
13.63325409          16.78707412          14.88580318
13.63325409          16.78707412          18.68834392
17.43579484          1.57690986          7.28072113
17.43579484          1.57690986          11.08326244
17.43579484          5.37945076          7.28072113
17.43579484          5.37945076          11.08326244
17.43579484          9.18199207          3.47818038
17.43579484          9.18199207          7.28072113
17.43579484          9.18199207          11.08326244
17.43579484          9.18199207          14.88580318
17.43579484          9.18199207          18.68834392
17.43579484          12.98453224          3.47818038
17.43579484          12.98453224          7.28072113
17.43579484          12.98453224          11.08326244
17.43579484          12.98453224          14.88580318
17.43579484          12.98453224          18.68834392
17.43579484          16.78707412          7.28072113
17.43579484          16.78707412          11.08326244
2.22563101          2.22563101          6.02817204
2.22563101          2.22563101          9.83071335
2.22563101          2.22563101          13.63325409
2.22563101          6.02817204          2.22563101
2.22563101          6.02817204          6.02817204
2.22563101          6.02817204          9.83071335
2.22563101          6.02817204          13.63325409
2.22563101          6.02817204          17.43579484
2.22563101          9.83071335          2.22563101
2.22563101          9.83071335          6.02817204
2.22563101          9.83071335          9.83071335
2.22563101          9.83071335          13.63325409
2.22563101          9.83071335          17.43579484
2.22563101          13.63325409          2.22563101
2.22563101          13.63325409          6.02817204
2.22563101          13.63325409          9.83071335
2.22563101          13.63325409          13.63325409
2.22563101          13.63325409          17.43579484
2.22563101          17.43579484          6.02817204
2.22563101          17.43579484          9.83071335
2.22563101          17.43579484          13.63325409
6.02817204          2.22563101          2.22563101
6.02817204          2.22563101          6.02817204
6.02817204          2.22563101          9.83071335
6.02817204          2.22563101          13.63325409
6.02817204          2.22563101          17.43579484
6.02817204          6.02817204          2.22563101
6.02817204          6.02817204          6.02817204
6.02817204          6.02817204          9.83071335
6.02817204          6.02817204          13.63325409
6.02817204          6.02817204          17.43579484
6.02817204          9.83071335          2.22563101
6.02817204          9.83071335          6.02817204
6.02817204          9.83071335          9.83071335
6.02817204          9.83071335          13.63325409
6.02817204          9.83071335          17.43579484
6.02817204          13.63325409          2.22563101
6.02817204          13.63325409          6.02817204
6.02817204          13.63325409          9.83071335
6.02817204          13.63325409          13.63325409
6.02817204          13.63325409          17.43579484
6.02817204          17.43579484          2.22563101
6.02817204          17.43579484          6.02817204
6.02817204          17.43579484          9.83071335
6.02817204          17.43579484          13.63325409
6.02817204          17.43579484          17.43579484
9.83071335          2.22563101          2.22563101
9.83071335          2.22563101          6.02817204
9.83071335          2.22563101          9.83071335
9.83071335          2.22563101          13.63325409
9.83071335          2.22563101          17.43579484
9.83071335          6.02817204          2.22563101
9.83071335          6.02817204          6.02817204
9.83071335          6.02817204          9.83071335
9.83071335          6.02817204          13.63325409
9.83071335          6.02817204          17.43579484
9.83071335          9.83071335          2.22563101
9.83071335          9.83071335          6.02817204
9.83071335          9.83071335          9.83071335
9.83071335          9.83071335          13.63325409
9.83071335          9.83071335          17.43579484
9.83071335          13.63325409          2.22563101
9.83071335          13.63325409          6.02817204
9.83071335          13.63325409          9.83071335
9.83071335          13.63325409          13.63325409
9.83071335          13.63325409          17.43579484
9.83071335          17.43579484          2.22563101
9.83071335          17.43579484          6.02817204
9.83071335          17.43579484          9.83071335
9.83071335          17.43579484          13.63325409
9.83071335          17.43579484          17.43579484
13.63325409          2.22563101          2.22563101
13.63325409          2.22563101          6.02817204
13.63325409          2.22563101          9.83071335
13.63325409          2.22563101          13.63325409
13.63325409          2.22563101          17.43579484
13.63325409          6.02817204          2.22563101
13.63325409          6.02817204          6.02817204
13.63325409          6.02817204          9.83071335
13.63325409          6.02817204          13.63325409
13.63325409          6.02817204          17.43579484
13.63325409          9.83071335          2.22563101
13.63325409          9.83071335          6.02817204
13.63325409          9.83071335          9.83071335
13.63325409          9.83071335          13.63325409
13.63325409          9.83071335          17.43579484
13.63325409          13.63325409          2.22563101
13.63325409          13.63325409          6.02817204
13.63325409          13.63325409          9.83071335
13.63325409          13.63325409          13.63325409
13.63325409          13.63325409          17.43579484
13.63325409          17.43579484          6.02817204
13.63325409          17.43579484          9.83071335
13.63325409          17.43579484          13.63325409
17.43579484          2.22563101          6.02817204
17.43579484          2.22563101          9.83071335
17.43579484          2.22563101          13.63325409
17.43579484          6.02817204          2.22563101
17.43579484          6.02817204          6.02817204
17.43579484          6.02817204          9.83071335
17.43579484          6.02817204          13.63325409
17.43579484          6.02817204          17.43579484
17.43579484          9.83071335          2.22563101
17.43579484          9.83071335          6.02817204
17.43579484          9.83071335          9.83071335
17.43579484          9.83071335          13.63325409
17.43579484          9.83071335          17.43579484
17.43579484          13.63325409          6.02817204
17.43579484          13.63325409          9.83071335
17.43579484          13.63325409          13.63325409
17.43579484          17.43579484          6.02817204
17.43579484          17.43579484          9.83071335
17.43579484          17.43579484          13.63325409
3.47818038          1.57690986          7.92944241
3.47818038          1.57690986          11.73198315
3.47818038          5.37945076          0.32436055
3.47818038          5.37945076          4.12690138
3.47818038          5.37945076          7.92944241
3.47818038          5.37945076          11.73198315
3.47818038          5.37945076          15.53452391
3.47818038          9.18199207          0.32436055
3.47818038          9.18199207          4.12690138
3.47818038          9.18199207          7.92944241
3.47818038          9.18199207          11.73198315
3.47818038          9.18199207          15.53452391
3.47818038          12.98453224          0.32436055
3.47818038          12.98453224          4.12690138