New structure
1.0
7.5300002098          0.0          0.0
0.0          7.5300002098          0.0
0.0          0.0          7.5300002098
    N
    64
Cartesian
0.32002501          0.32002501          0.32002501
0.32002501          0.32002501          4.08502512
0.32002501          4.08502512          0.32002501
0.32002501          4.08502512          4.08502512
4.08502512          0.32002501          0.32002501
4.08502512          0.32002501          4.08502512
4.08502512          4.08502512          0.32002501
4.08502512          4.08502512          4.08502512
1.56247501          3.44497518          2.20252498
1.56247501          3.44497518          5.96752509
1.56247501          7.20997528          2.20252498
1.56247501          7.20997528          5.96752509
5.32747512          3.44497518          2.20252498
5.32747512          3.44497518          5.96752509
5.32747512          7.20997528          2.20252498
5.32747512          7.20997528          5.96752509
3.44497518          2.20252498          1.56247501
3.44497518          2.20252498          5.32747512
3.44497518          5.96752509          1.56247501
3.44497518          5.96752509          5.32747512
7.20997528          2.20252498          1.56247501
7.20997528          2.20252498          5.32747512
7.20997528          5.96752509          1.56247501
7.20997528          5.96752509          5.32747512
2.20252498          1.56247501          3.44497518
2.20252498          1.56247501          7.20997528
2.20252498          5.32747512          3.44497518
2.20252498          5.32747512          7.20997528
5.96752509          1.56247501          3.44497518
5.96752509          1.56247501          7.20997528
5.96752509          5.32747512          3.44497518
5.96752509          5.32747512          7.20997528
2.20252498          2.20252498          2.20252498
2.20252498          2.20252498          5.96752509
2.20252498          5.96752509          2.20252498
2.20252498          5.96752509          5.96752509
5.96752509          2.20252498          2.20252498
5.96752509          2.20252498          5.96752509
5.96752509          5.96752509          2.20252498
5.96752509          5.96752509          5.96752509
3.44497518          1.56247501          0.32002501
3.44497518          1.56247501          4.08502512
3.44497518          5.32747512          0.32002501
3.44497518          5.32747512          4.08502512
7.20997528          1.56247501          0.32002501
7.20997528          1.56247501          4.08502512
7.20997528          5.32747512          0.32002501
7.20997528          5.32747512          4.08502512
1.56247501          0.32002501          3.44497518
1.56247501          0.32002501          7.20997528
1.56247501          4.08502512          3.44497518
1.56247501          4.08502512          7.20997528
5.32747512          0.32002501          3.44497518
5.32747512          0.32002501          7.20997528
5.32747512          4.08502512          3.44497518
5.32747512          4.08502512          7.20997528
0.32002501          3.44497518          1.56247501
0.32002501          3.44497518          5.32747512
0.32002501          7.20997528          1.56247501
0.32002501          7.20997528          5.32747512
4.08502512          3.44497518          1.56247501
4.08502512          3.44497518          5.32747512
4.08502512          7.20997528          1.56247501
4.08502512          7.20997528          5.32747512
