New structure
1.0
        3.7650001049         0.0000000000         0.0000000000
        0.0000000000         3.7650001049         0.0000000000
        0.0000000000         0.0000000000         3.7650001049
    N
    8
Direct
     0.085000001         0.085000001         0.085000001
     0.414999992         0.915000021         0.584999979
     0.915000021         0.584999979         0.414999992
     0.584999979         0.414999992         0.915000021
     0.584999979         0.584999979         0.584999979
     0.915000021         0.414999992         0.085000001
     0.414999992         0.085000001         0.915000021
     0.085000001         0.915000021         0.414999992
