New structure                         
1.0
       19.0127048492         0.0000000000         0.0000000000
        0.0000000000        19.0127048492         0.0000000000
        0.0000000000         0.0000000000        19.0127048492
    N  O
 500  500
Direct
     0.017060200         0.017060200         0.017060200
     0.017060200         0.017060200         0.217060193
     0.017060200         0.017060200         0.417060196
     0.017060200         0.017060200         0.617060184
     0.017060200         0.017060200         0.817060173
     0.017060200         0.217060193         0.017060200
     0.017060200         0.217060193         0.217060193
     0.017060200         0.217060193         0.417060196
     0.017060200         0.217060193         0.617060184
     0.017060200         0.217060193         0.817060173
     0.017060200         0.417060196         0.017060200
     0.017060200         0.417060196         0.217060193
     0.017060200         0.417060196         0.417060196
     0.017060200         0.417060196         0.617060184
     0.017060200         0.417060196         0.817060173
     0.017060200         0.617060184         0.017060200
     0.017060200         0.617060184         0.217060193
     0.017060200         0.617060184         0.417060196
     0.017060200         0.617060184         0.617060184
     0.017060200         0.617060184         0.817060173
     0.017060200         0.817060173         0.017060200
     0.017060200         0.817060173         0.217060193
     0.017060200         0.817060173         0.417060196
     0.017060200         0.817060173         0.617060184
     0.017060200         0.817060173         0.817060173
     0.217060193         0.017060200         0.017060200
     0.217060193         0.017060200         0.217060193
     0.217060193         0.017060200         0.417060196
     0.217060193         0.017060200         0.617060184
     0.217060193         0.017060200         0.817060173
     0.217060193         0.217060193         0.017060200
     0.217060193         0.217060193         0.217060193
     0.217060193         0.217060193         0.417060196
     0.217060193         0.217060193         0.617060184
     0.217060193         0.217060193         0.817060173
     0.217060193         0.417060196         0.017060200
     0.217060193         0.417060196         0.217060193
     0.217060193         0.417060196         0.417060196
     0.217060193         0.417060196         0.617060184
     0.217060193         0.417060196         0.817060173
     0.217060193         0.617060184         0.017060200
     0.217060193         0.617060184         0.217060193
     0.217060193         0.617060184         0.417060196
     0.217060193         0.617060184         0.617060184
     0.217060193         0.617060184         0.817060173
     0.217060193         0.817060173         0.017060200
     0.217060193         0.817060173         0.217060193
     0.217060193         0.817060173         0.417060196
     0.217060193         0.817060173         0.617060184
     0.217060193         0.817060173         0.817060173
     0.417060196         0.017060200         0.017060200
     0.417060196         0.017060200         0.217060193
     0.417060196         0.017060200         0.417060196
     0.417060196         0.017060200         0.617060184
     0.417060196         0.017060200         0.817060173
     0.417060196         0.217060193         0.017060200
     0.417060196         0.217060193         0.217060193
     0.417060196         0.217060193         0.417060196
     0.417060196         0.217060193         0.617060184
     0.417060196         0.217060193         0.817060173
     0.417060196         0.417060196         0.017060200
     0.417060196         0.417060196         0.217060193
     0.417060196         0.417060196         0.417060196
     0.417060196         0.417060196         0.617060184
     0.417060196         0.417060196         0.817060173
     0.417060196         0.617060184         0.017060200
     0.417060196         0.617060184         0.217060193
     0.417060196         0.617060184         0.417060196
     0.417060196         0.617060184         0.617060184
     0.417060196         0.617060184         0.817060173
     0.417060196         0.817060173         0.017060200
     0.417060196         0.817060173         0.217060193
     0.417060196         0.817060173         0.417060196
     0.417060196         0.817060173         0.617060184
     0.417060196         0.817060173         0.817060173
     0.617060184         0.017060200         0.017060200
     0.617060184         0.017060200         0.217060193
     0.617060184         0.017060200         0.417060196
     0.617060184         0.017060200         0.617060184
     0.617060184         0.017060200         0.817060173
     0.617060184         0.217060193         0.017060200
     0.617060184         0.217060193         0.217060193
     0.617060184         0.217060193         0.417060196
     0.617060184         0.217060193         0.617060184
     0.617060184         0.217060193         0.817060173
     0.617060184         0.417060196         0.017060200
     0.617060184         0.417060196         0.217060193
     0.617060184         0.417060196         0.417060196
     0.617060184         0.417060196         0.617060184
     0.617060184         0.417060196         0.817060173
     0.617060184         0.617060184         0.017060200
     0.617060184         0.617060184         0.217060193
     0.617060184         0.617060184         0.417060196
     0.617060184         0.617060184         0.617060184
     0.617060184         0.617060184         0.817060173
     0.617060184         0.817060173         0.017060200
     0.617060184         0.817060173         0.217060193
     0.617060184         0.817060173         0.417060196
     0.617060184         0.817060173         0.617060184
     0.617060184         0.817060173         0.817060173
     0.817060173         0.017060200         0.017060200
     0.817060173         0.017060200         0.217060193
     0.817060173         0.017060200         0.417060196
     0.817060173         0.017060200         0.617060184
     0.817060173         0.017060200         0.817060173
     0.817060173         0.217060193         0.017060200
     0.817060173         0.217060193         0.217060193
     0.817060173         0.217060193         0.417060196
     0.817060173         0.217060193         0.617060184
     0.817060173         0.217060193         0.817060173
     0.817060173         0.417060196         0.017060200
     0.817060173         0.417060196         0.217060193
     0.817060173         0.417060196         0.417060196
     0.817060173         0.417060196         0.617060184
     0.817060173         0.417060196         0.817060173
     0.817060173         0.617060184         0.017060200
     0.817060173         0.617060184         0.217060193
     0.817060173         0.617060184         0.417060196
     0.817060173         0.617060184         0.617060184
     0.817060173         0.617060184         0.817060173
     0.817060173         0.817060173         0.017060200
     0.817060173         0.817060173         0.217060193
     0.817060173         0.817060173         0.417060196
     0.817060173         0.817060173         0.617060184
     0.817060173         0.817060173         0.817060173
     0.082939796         0.182939798         0.117060199
     0.082939796         0.182939798         0.317060202
     0.082939796         0.182939798         0.517060220
     0.082939796         0.182939798         0.717060208
     0.082939796         0.182939798         0.917060196
     0.082939796         0.382939786         0.117060199
     0.082939796         0.382939786         0.317060202
     0.082939796         0.382939786         0.517060220
     0.082939796         0.382939786         0.717060208
     0.082939796         0.382939786         0.917060196
     0.082939796         0.582939804         0.117060199
     0.082939796         0.582939804         0.317060202
     0.082939796         0.582939804         0.517060220
     0.082939796         0.582939804         0.717060208
     0.082939796         0.582939804         0.917060196
     0.082939796         0.782939792         0.117060199
     0.082939796         0.782939792         0.317060202
     0.082939796         0.782939792         0.517060220
     0.082939796         0.782939792         0.717060208
     0.082939796         0.782939792         0.917060196
     0.082939796         0.982939780         0.117060199
     0.082939796         0.982939780         0.317060202
     0.082939796         0.982939780         0.517060220
     0.082939796         0.982939780         0.717060208
     0.082939796         0.982939780         0.917060196
     0.282939792         0.182939798         0.117060199
     0.282939792         0.182939798         0.317060202
     0.282939792         0.182939798         0.517060220
     0.282939792         0.182939798         0.717060208
     0.282939792         0.182939798         0.917060196
     0.282939792         0.382939786         0.117060199
     0.282939792         0.382939786         0.317060202
     0.282939792         0.382939786         0.517060220
     0.282939792         0.382939786         0.717060208
     0.282939792         0.382939786         0.917060196
     0.282939792         0.582939804         0.117060199
     0.282939792         0.582939804         0.317060202
     0.282939792         0.582939804         0.517060220
     0.282939792         0.582939804         0.717060208
     0.282939792         0.582939804         0.917060196
     0.282939792         0.782939792         0.117060199
     0.282939792         0.782939792         0.317060202
     0.282939792         0.782939792         0.517060220
     0.282939792         0.782939792         0.717060208
     0.282939792         0.782939792         0.917060196
     0.282939792         0.982939780         0.117060199
     0.282939792         0.982939780         0.317060202
     0.282939792         0.982939780         0.517060220
     0.282939792         0.982939780         0.717060208
     0.282939792         0.982939780         0.917060196
     0.482939810         0.182939798         0.117060199
     0.482939810         0.182939798         0.317060202
     0.482939810         0.182939798         0.517060220
     0.482939810         0.182939798         0.717060208
     0.482939810         0.182939798         0.917060196
     0.482939810         0.382939786         0.117060199
     0.482939810         0.382939786         0.317060202
     0.482939810         0.382939786         0.517060220
     0.482939810         0.382939786         0.717060208
     0.482939810         0.382939786         0.917060196
     0.482939810         0.582939804         0.117060199
     0.482939810         0.582939804         0.317060202
     0.482939810         0.582939804         0.517060220
     0.482939810         0.582939804         0.717060208
     0.482939810         0.582939804         0.917060196
     0.482939810         0.782939792         0.117060199
     0.482939810         0.782939792         0.317060202
     0.482939810         0.782939792         0.517060220
     0.482939810         0.782939792         0.717060208
     0.482939810         0.782939792         0.917060196
     0.482939810         0.982939780         0.117060199
     0.482939810         0.982939780         0.317060202
     0.482939810         0.982939780         0.517060220
     0.482939810         0.982939780         0.717060208
     0.482939810         0.982939780         0.917060196
     0.682939768         0.182939798         0.117060199
     0.682939768         0.182939798         0.317060202
     0.682939768         0.182939798         0.517060220
     0.682939768         0.182939798         0.717060208
     0.682939768         0.182939798         0.917060196
     0.682939768         0.382939786         0.117060199
     0.682939768         0.382939786         0.317060202
     0.682939768         0.382939786         0.517060220
     0.682939768         0.382939786         0.717060208
     0.682939768         0.382939786         0.917060196
     0.682939768         0.582939804         0.117060199
     0.682939768         0.582939804         0.317060202
     0.682939768         0.582939804         0.517060220
     0.682939768         0.582939804         0.717060208
     0.682939768         0.582939804         0.917060196
     0.682939768         0.782939792         0.117060199
     0.682939768         0.782939792         0.317060202
     0.682939768         0.782939792         0.517060220
     0.682939768         0.782939792         0.717060208
     0.682939768         0.782939792         0.917060196
     0.682939768         0.982939780         0.117060199
     0.682939768         0.982939780         0.317060202
     0.682939768         0.982939780         0.517060220
     0.682939768         0.982939780         0.717060208
     0.682939768         0.982939780         0.917060196
     0.882939816         0.182939798         0.117060199
     0.882939816         0.182939798         0.317060202
     0.882939816         0.182939798         0.517060220
     0.882939816         0.182939798         0.717060208
     0.882939816         0.182939798         0.917060196
     0.882939816         0.382939786         0.117060199
     0.882939816         0.382939786         0.317060202
     0.882939816         0.382939786         0.517060220
     0.882939816         0.382939786         0.717060208
     0.882939816         0.382939786         0.917060196
     0.882939816         0.582939804         0.117060199
     0.882939816         0.582939804         0.317060202
     0.882939816         0.582939804         0.517060220
     0.882939816         0.582939804         0.717060208
     0.882939816         0.582939804         0.917060196
     0.882939816         0.782939792         0.117060199
     0.882939816         0.782939792         0.317060202
     0.882939816         0.782939792         0.517060220
     0.882939816         0.782939792         0.717060208
     0.882939816         0.782939792         0.917060196
     0.882939816         0.982939780         0.117060199
     0.882939816         0.982939780         0.317060202
     0.882939816         0.982939780         0.517060220
     0.882939816         0.982939780         0.717060208
     0.882939816         0.982939780         0.917060196
     0.182939798         0.117060199         0.082939796
     0.182939798         0.117060199         0.282939792
     0.182939798         0.117060199         0.482939810
     0.182939798         0.117060199         0.682939768
     0.182939798         0.117060199         0.882939816
     0.182939798         0.317060202         0.082939796
     0.182939798         0.317060202         0.282939792
     0.182939798         0.317060202         0.482939810
     0.182939798         0.317060202         0.682939768
     0.182939798         0.317060202         0.882939816
     0.182939798         0.517060220         0.082939796
     0.182939798         0.517060220         0.282939792
     0.182939798         0.517060220         0.482939810
     0.182939798         0.517060220         0.682939768
     0.182939798         0.517060220         0.882939816
     0.182939798         0.717060208         0.082939796
     0.182939798         0.717060208         0.282939792
     0.182939798         0.717060208         0.482939810
     0.182939798         0.717060208         0.682939768
     0.182939798         0.717060208         0.882939816
     0.182939798         0.917060196         0.082939796
     0.182939798         0.917060196         0.282939792
     0.182939798         0.917060196         0.482939810
     0.182939798         0.917060196         0.682939768
     0.182939798         0.917060196         0.882939816
     0.382939786         0.117060199         0.082939796
     0.382939786         0.117060199         0.282939792
     0.382939786         0.117060199         0.482939810
     0.382939786         0.117060199         0.682939768
     0.382939786         0.117060199         0.882939816
     0.382939786         0.317060202         0.082939796
     0.382939786         0.317060202         0.282939792
     0.382939786         0.317060202         0.482939810
     0.382939786         0.317060202         0.682939768
     0.382939786         0.317060202         0.882939816
     0.382939786         0.517060220         0.082939796
     0.382939786         0.517060220         0.282939792
     0.382939786         0.517060220         0.482939810
     0.382939786         0.517060220         0.682939768
     0.382939786         0.517060220         0.882939816
     0.382939786         0.717060208         0.082939796
     0.382939786         0.717060208         0.282939792
     0.382939786         0.717060208         0.482939810
     0.382939786         0.717060208         0.682939768
     0.382939786         0.717060208         0.882939816
     0.382939786         0.917060196         0.082939796
     0.382939786         0.917060196         0.282939792
     0.382939786         0.917060196         0.482939810
     0.382939786         0.917060196         0.682939768
     0.382939786         0.917060196         0.882939816
     0.582939804         0.117060199         0.082939796
     0.582939804         0.117060199         0.282939792
     0.582939804         0.117060199         0.482939810
     0.582939804         0.117060199         0.682939768
     0.582939804         0.117060199         0.882939816
     0.582939804         0.317060202         0.082939796
     0.582939804         0.317060202         0.282939792
     0.582939804         0.317060202         0.482939810
     0.582939804         0.317060202         0.682939768
     0.582939804         0.317060202         0.882939816
     0.582939804         0.517060220         0.082939796
     0.582939804         0.517060220         0.282939792
     0.582939804         0.517060220         0.482939810
     0.582939804         0.517060220         0.682939768
     0.582939804         0.517060220         0.882939816
     0.582939804         0.717060208         0.082939796
     0.582939804         0.717060208         0.282939792
     0.582939804         0.717060208         0.482939810
     0.582939804         0.717060208         0.682939768
     0.582939804         0.717060208         0.882939816
     0.582939804         0.917060196         0.082939796
     0.582939804         0.917060196         0.282939792
     0.582939804         0.917060196         0.482939810
     0.582939804         0.917060196         0.682939768
     0.582939804         0.917060196         0.882939816
     0.782939792         0.117060199         0.082939796
     0.782939792         0.117060199         0.282939792
     0.782939792         0.117060199         0.482939810
     0.782939792         0.117060199         0.682939768
     0.782939792         0.117060199         0.882939816
     0.782939792         0.317060202         0.082939796
     0.782939792         0.317060202         0.282939792
     0.782939792         0.317060202         0.482939810
     0.782939792         0.317060202         0.682939768
     0.782939792         0.317060202         0.882939816
     0.782939792         0.517060220         0.082939796
     0.782939792         0.517060220         0.282939792
     0.782939792         0.517060220         0.482939810
     0.782939792         0.517060220         0.682939768
     0.782939792         0.517060220         0.882939816
     0.782939792         0.717060208         0.082939796
     0.782939792         0.717060208         0.282939792
     0.782939792         0.717060208         0.482939810
     0.782939792         0.717060208         0.682939768
     0.782939792         0.717060208         0.882939816
     0.782939792         0.917060196         0.082939796
     0.782939792         0.917060196         0.282939792
     0.782939792         0.917060196         0.482939810
     0.782939792         0.917060196         0.682939768
     0.782939792         0.917060196         0.882939816
     0.982939780         0.117060199         0.082939796
     0.982939780         0.117060199         0.282939792
     0.982939780         0.117060199         0.482939810
     0.982939780         0.117060199         0.682939768
     0.982939780         0.117060199         0.882939816
     0.982939780         0.317060202         0.082939796
     0.982939780         0.317060202         0.282939792
     0.982939780         0.317060202         0.482939810
     0.982939780         0.317060202         0.682939768
     0.982939780         0.317060202         0.882939816
     0.982939780         0.517060220         0.082939796
     0.982939780         0.517060220         0.282939792
     0.982939780         0.517060220         0.482939810
     0.982939780         0.517060220         0.682939768
     0.982939780         0.517060220         0.882939816
     0.982939780         0.717060208         0.082939796
     0.982939780         0.717060208         0.282939792
     0.982939780         0.717060208         0.482939810
     0.982939780         0.717060208         0.682939768
     0.982939780         0.717060208         0.882939816
     0.982939780         0.917060196         0.082939796
     0.982939780         0.917060196         0.282939792
     0.982939780         0.917060196         0.482939810
     0.982939780         0.917060196         0.682939768
     0.982939780         0.917060196         0.882939816
     0.117060199         0.082939796         0.182939798
     0.117060199         0.082939796         0.382939786
     0.117060199         0.082939796         0.582939804
     0.117060199         0.082939796         0.782939792
     0.117060199         0.082939796         0.982939780
     0.117060199         0.282939792         0.182939798
     0.117060199         0.282939792         0.382939786
     0.117060199         0.282939792         0.582939804
     0.117060199         0.282939792         0.782939792
     0.117060199         0.282939792         0.982939780
     0.117060199         0.482939810         0.182939798
     0.117060199         0.482939810         0.382939786
     0.117060199         0.482939810         0.582939804
     0.117060199         0.482939810         0.782939792
     0.117060199         0.482939810         0.982939780
     0.117060199         0.682939768         0.182939798
     0.117060199         0.682939768         0.382939786
     0.117060199         0.682939768         0.582939804
     0.117060199         0.682939768         0.782939792
     0.117060199         0.682939768         0.982939780
     0.117060199         0.882939816         0.182939798
     0.117060199         0.882939816         0.382939786
     0.117060199         0.882939816         0.582939804
     0.117060199         0.882939816         0.782939792
     0.117060199         0.882939816         0.982939780
     0.317060202         0.082939796         0.182939798
     0.317060202         0.082939796         0.382939786
     0.317060202         0.082939796         0.582939804
     0.317060202         0.082939796         0.782939792
     0.317060202         0.082939796         0.982939780
     0.317060202         0.282939792         0.182939798
     0.317060202         0.282939792         0.382939786
     0.317060202         0.282939792         0.582939804
     0.317060202         0.282939792         0.782939792
     0.317060202         0.282939792         0.982939780
     0.317060202         0.482939810         0.182939798
     0.317060202         0.482939810         0.382939786
     0.317060202         0.482939810         0.582939804
     0.317060202         0.482939810         0.782939792
     0.317060202         0.482939810         0.982939780
     0.317060202         0.682939768         0.182939798
     0.317060202         0.682939768         0.382939786
     0.317060202         0.682939768         0.582939804
     0.317060202         0.682939768         0.782939792
     0.317060202         0.682939768         0.982939780
     0.317060202         0.882939816         0.182939798
     0.317060202         0.882939816         0.382939786
     0.317060202         0.882939816         0.582939804
     0.317060202         0.882939816         0.782939792
     0.317060202         0.882939816         0.982939780
     0.517060220         0.082939796         0.182939798
     0.517060220         0.082939796         0.382939786
     0.517060220         0.082939796         0.582939804
     0.517060220         0.082939796         0.782939792
     0.517060220         0.082939796         0.982939780
     0.517060220         0.282939792         0.182939798
     0.517060220         0.282939792         0.382939786
     0.517060220         0.282939792         0.582939804
     0.517060220         0.282939792         0.782939792
     0.517060220         0.282939792         0.982939780
     0.517060220         0.482939810         0.182939798
     0.517060220         0.482939810         0.382939786
     0.517060220         0.482939810         0.582939804
     0.517060220         0.482939810         0.782939792
     0.517060220         0.482939810         0.982939780
     0.517060220         0.682939768         0.182939798
     0.517060220         0.682939768         0.382939786
     0.517060220         0.682939768         0.582939804
     0.517060220         0.682939768         0.782939792
     0.517060220         0.682939768         0.982939780
     0.517060220         0.882939816         0.182939798
     0.517060220         0.882939816         0.382939786
     0.517060220         0.882939816         0.582939804
     0.517060220         0.882939816         0.782939792
     0.517060220         0.882939816         0.982939780
     0.717060208         0.082939796         0.182939798
     0.717060208         0.082939796         0.382939786
     0.717060208         0.082939796         0.582939804
     0.717060208         0.082939796         0.782939792
     0.717060208         0.082939796         0.982939780
     0.717060208         0.282939792         0.182939798
     0.717060208         0.282939792         0.382939786
     0.717060208         0.282939792         0.582939804
     0.717060208         0.282939792         0.782939792
     0.717060208         0.282939792         0.982939780
     0.717060208         0.482939810         0.182939798
     0.717060208         0.482939810         0.382939786
     0.717060208         0.482939810         0.582939804
     0.717060208         0.482939810         0.782939792
     0.717060208         0.482939810         0.982939780
     0.717060208         0.682939768         0.182939798
     0.717060208         0.682939768         0.382939786
     0.717060208         0.682939768         0.582939804
     0.717060208         0.682939768         0.782939792
     0.717060208         0.682939768         0.982939780
     0.717060208         0.882939816         0.182939798
     0.717060208         0.882939816         0.382939786
     0.717060208         0.882939816         0.582939804
     0.717060208         0.882939816         0.782939792
     0.717060208         0.882939816         0.982939780
     0.917060196         0.082939796         0.182939798
     0.917060196         0.082939796         0.382939786
     0.917060196         0.082939796         0.582939804
     0.917060196         0.082939796         0.782939792
     0.917060196         0.082939796         0.982939780
     0.917060196         0.282939792         0.182939798
     0.917060196         0.282939792         0.382939786
     0.917060196         0.282939792         0.582939804
     0.917060196         0.282939792         0.782939792
     0.917060196         0.282939792         0.982939780
     0.917060196         0.482939810         0.182939798
     0.917060196         0.482939810         0.382939786
     0.917060196         0.482939810         0.582939804
     0.917060196         0.482939810         0.782939792
     0.917060196         0.482939810         0.982939780
     0.917060196         0.682939768         0.182939798
     0.917060196         0.682939768         0.382939786
     0.917060196         0.682939768         0.582939804
     0.917060196         0.682939768         0.782939792
     0.917060196         0.682939768         0.982939780
     0.917060196         0.882939816         0.182939798
     0.917060196         0.882939816         0.382939786
     0.917060196         0.882939816         0.582939804
     0.917060196         0.882939816         0.782939792
     0.917060196         0.882939816         0.982939780
     0.117060199         0.117060199         0.117060199
     0.117060199         0.117060199         0.317060202
     0.117060199         0.117060199         0.517060220
     0.117060199         0.117060199         0.717060208
     0.117060199         0.117060199         0.917060196
     0.117060199         0.317060202         0.117060199
     0.117060199         0.317060202         0.317060202
     0.117060199         0.317060202         0.517060220
     0.117060199         0.317060202         0.717060208
     0.117060199         0.317060202         0.917060196
     0.117060199         0.517060220         0.117060199
     0.117060199         0.517060220         0.317060202